n_res = 4;
rc = [ 17, 16, 16, 18 ];
n_tasks = 90;
d = [ 4, 9, 10, 1, 9, 7, 4, 9, 7, 9, 7, 8, 7, 5, 1, 10, 6, 6, 8, 4, 5, 1, 5, 3, 3, 7, 2, 6, 10, 7, 8, 9, 8, 6, 4, 8, 7, 3, 4, 10, 3, 6, 7, 10, 7, 2, 6, 2, 10, 3, 4, 10, 5, 7, 10, 8, 3, 9, 8, 7, 4, 6, 9, 2, 1, 9, 7, 5, 1, 9, 10, 1, 9, 7, 10, 4, 7, 8, 8, 9, 7, 8, 5, 4, 1, 10, 2, 10, 10, 4 ];
rr = [| 0, 1, 9, 8, 7, 7, 0, 0, 9, 0, 6, 0, 5, 10, 0, 7, 0, 2, 6, 0, 10, 0, 8, 3, 6, 0, 0, 0, 0, 2, 1, 0, 0, 4, 4, 0, 7, 9, 2, 1, 0, 10, 0, 2, 0, 0, 1, 0, 7, 3, 9, 4, 0, 0, 0, 0, 7, 0, 0, 0, 0, 0, 0, 9, 4, 6, 0, 1, 0, 0, 6, 1, 0, 7, 0, 1, 10, 0, 0, 7, 2, 0, 0, 0, 2, 2, 10, 5, 4, 0
      | 5, 2, 0, 0, 0, 0, 0, 0, 9, 9, 0, 7, 8, 8, 8, 0, 0, 0, 0, 9, 1, 0, 2, 10, 0, 4, 7, 6, 0, 6, 0, 0, 4, 3, 0, 2, 0, 0, 0, 8, 0, 0, 0, 0, 2, 1, 0, 5, 0, 0, 0, 5, 2, 2, 9, 9, 0, 0, 5, 6, 5, 0, 2, 0, 0, 2, 3, 0, 9, 0, 0, 0, 9, 0, 10, 9, 2, 0, 6, 0, 0, 6, 0, 0, 8, 0, 9, 5, 0, 9
      | 0, 4, 0, 0, 0, 1, 2, 5, 4, 0, 0, 4, 0, 0, 0, 0, 5, 0, 10, 0, 0, 3, 5, 0, 1, 0, 0, 6, 5, 4, 0, 0, 0, 0, 0, 0, 0, 0, 9, 0, 2, 0, 6, 4, 0, 5, 10, 1, 0, 4, 0, 0, 0, 2, 10, 0, 0, 3, 0, 3, 2, 9, 4, 0, 0, 0, 3, 3, 0, 8, 6, 0, 0, 3, 3, 4, 6, 0, 2, 0, 0, 0, 6, 3, 0, 3, 0, 9, 6, 9
      | 1, 0, 9, 0, 9, 0, 8, 7, 4, 0, 0, 0, 0, 4, 5, 0, 0, 9, 0, 1, 0, 0, 7, 0, 0, 0, 9, 5, 8, 0, 9, 8, 0, 0, 7, 0, 0, 4, 9, 9, 0, 0, 5, 10, 4, 0, 0, 0, 8, 0, 0, 4, 10, 10, 0, 0, 1, 1, 0, 0, 2, 0, 6, 4, 0, 10, 0, 0, 0, 0, 1, 0, 0, 3, 0, 0, 4, 8, 0, 2, 0, 9, 7, 6, 0, 1, 8, 0, 0, 10 |];
suc = [ { 16, 53, 59 },
       { 5, 7, 15 },
       { 4, 28, 63 },
       { 17, 66, 82 },
       { 6, 8, 9 },
       { 66, 67, 78 },
       { 11, 13, 14 },
       { 10, 35, 85 },
       { 47, 57, 80 },
       { 12, 39, 44 },
       { 20, 28, 41 },
       { 25, 54, 55 },
       { 42, 56, 57 },
       { 25, 27, 37 },
       { 21, 27, 31 },
       { 18, 19, 69 },
       { 22, 24, 40 },
       { 22, 23, 83 },
       { 30, 38 },
       { 40 },
       { 22, 46, 65 },
       { 29, 35 },
       { 34, 58, 90 },
       { 26, 33, 71 },
       { 47, 59 },
       { 37, 42, 64 },
       { 28, 36, 40 },
       { 38, 50, 74 },
       { 61, 81 },
       { 46, 51, 67 },
       { 32, 38, 45 },
       { 33, 50, 51 },
       { 42, 65, 70 },
       { 35, 43, 63 },
       { 49, 89 },
       { 43, 48, 55 },
       { 51, 77 },
       { 52, 79 },
       { 53, 57 },
       { 65, 69, 71 },
       { 48, 58, 66 },
       { 49 },
       { 49, 52 },
       { 47, 71 },
       { 46, 62, 70 },
       { 60, 72, 86 },
       { 48, 53, 64 },
       { 62, 68 },
       { 54, 84 },
       { 55, 60, 73 },
       { 56, 61, 72 },
       { 54, 60 },
       { 62, 68 },
       { 88 },
       { 77 },
       { 70 },
       { 59, 64 },
       { 61, 78 },
       { 63, 90 },
       { 78, 81 },
       { 73 },
       { 75, 86 },
       { 84, 87 },
       { 67, 69 },
       { 76 },
       { 76 },
       { 68 },
       { 75, 89 },
       { 77 },
       { 74, 86 },
       { 75 },
       { 73, 74 },
       { 79 },
       { 76 },
       { 81, 90 },
       { 79, 83 },
       { 83 },
       { 80, 82 },
       { 80 },
       { 85 },
       { 88 },
       { 85 },
       { 84 },
       { 88 },
       { 87 },
       { 87 },
       { 89 },
       {  },
       {  },
       {  } ];
